(set-logic QF_S)
(declare-fun var0 () String)
(declare-fun var1 () Int)
(declare-fun var2 () String)
(declare-fun var3 () Int)
(declare-fun var4 () String)
(declare-fun var5 () Int)
(declare-fun var6 () Int)
(declare-fun var7 () String)
(assert (str.suffixof (str.substr var0 var1 var1) (str.at var2 var3)))
(assert (str.in.re (str.at var4 var5) (re.+ re.allchar)))
(assert (>= var6 var5))
(assert (<= (str.to.int var7) (str.indexof (str.substr var2 var5 var1) (str.substr var4 var1 var6) (str.indexof var4 var2 var6))))
(check-sat)